c Output_time 26.03.2020 18:15:15_+0100 1585242915084813600
c ** Program information **
c program_name                          "QBRG_debug"
c version                               "0.3.20"
c date                                  "25.3.2020"
c gid_id                                "673970833836058123f633335630c185360d632e"
c author                                "Oliver Kullmann"
c url                                   "https://github.com/OKullmann/oklibrary/blob/master/Satisfiability/Transformers/Generators/Random/QBRG.cpp"
c ** Machine information **
c machine_name                          "chyna-Lenovo-G50-70"
c bogomips                              3791.08
c ** Compilation information **
c compiler_version                      "g++ 7.5.0"
c compilation_date                      "Mar_26_2020 11:16:30"
c compilation_options                   "--std=c++17 -pedantic -fmax-errors=5 -Wall -Wextra -g -D_GLIBCXX_DEBUG"
c NDEBUG                                0
c OPTIMIZE                              0
c ** Parameters **
c command-line                          "./QBRG_debug" "a40 e40 a40 40" "317*1,1|2-2,1|3-3,1|4-4,1" "" "1,t" ""
c output                                "QuBlRaGe_160_317_1585242915084653283.qdimacs"
c options                               "filtered,renamed"
c num_quantifier_blocks                 4
c  quantifier_blocks                    1:a1-40 2:e41-80 3:a81-120 4:e121-160
c num_clause-blocks                     1
c  clause-blocks                        317 * {1-40,1,1/2} | {41-80,1,1/2} | {81-120,1,1/2} | {121-160,1,1/2}
c num_e-seeds                           37+2=39
c  e-seeds                              1 0 1 0 5 160 2 40 0 40 1 40 0 40 1 317 4 1 1 1 1 2 2 2 1 1 2 3 3 1 1 2 4 4 1 1 2 1 1585242915084652594
p cnf 160 317
a 1 2 3 4 5 6 7 8 9 10 11 12 13 14 15 16 17 18 19 20 21 22 23 24 25 26 27 28 29 30 31 32 33 34 35 36 37 38 39 40 0
e 41 42 43 44 45 46 47 48 49 50 51 52 53 54 55 56 57 58 59 60 61 62 63 64 65 66 67 68 69 70 71 72 73 74 75 76 77 78 79 80 0
a 81 82 83 84 85 86 87 88 89 90 91 92 93 94 95 96 97 98 99 100 101 102 103 104 105 106 107 108 109 110 111 112 113 114 115 116 117 118 119 120 0
e 121 122 123 124 125 126 127 128 129 130 131 132 133 134 135 136 137 138 139 140 141 142 143 144 145 146 147 148 149 150 151 152 153 154 155 156 157 158 159 160 0
-22 -72 -82 -121 0
21 61 87 -121 0
11 -63 -91 -121 0
-16 78 -91 -121 0
40 42 92 -121 0
18 72 -102 -121 0
-6 -70 -105 -121 0
-15 58 84 121 0
9 55 -86 121 0
-3 59 105 121 0
12 72 -82 -122 0
-38 -60 -111 -122 0
-5 47 116 -122 0
-17 -69 119 -122 0
35 -79 -88 122 0
-10 44 -95 122 0
-7 71 101 -123 0
5 -79 107 -123 0
12 -76 110 -123 0
4 -69 115 -123 0
-21 -66 88 123 0
-35 67 89 123 0
11 -75 -96 123 0
22 55 104 123 0
-14 -78 114 123 0
-17 69 -104 -124 0
19 66 84 124 0
4 71 -87 124 0
24 67 -89 124 0
27 41 91 124 0
29 53 -94 124 0
20 53 112 124 0
-10 -50 95 -125 0
40 -67 95 -125 0
-20 -69 98 125 0
-7 -64 105 125 0
-27 -50 -114 125 0
15 -79 93 -126 0
12 69 110 -126 0
-27 74 -117 -126 0
34 -80 81 126 0
17 -80 86 126 0
19 44 -97 126 0
27 -44 98 126 0
5 -80 102 126 0
37 -68 112 126 0
-26 -74 -85 -127 0
4 58 89 -127 0
21 -74 97 -127 0
30 75 85 127 0
5 44 86 127 0
-40 63 86 127 0
11 51 88 127 0
-16 -60 -94 127 0
21 54 -106 127 0
13 -71 88 -128 0
30 69 -89 -128 0
-19 -59 97 -128 0
-5 -44 -103 -128 0
4 -57 115 -128 0
4 56 -96 128 0
12 -50 97 128 0
9 -62 -101 128 0
18 50 -109 128 0
20 -45 -98 -129 0
16 44 -100 -129 0
-3 71 89 129 0
20 69 108 129 0
29 47 109 -130 0
14 -45 119 -130 0
-26 -75 99 130 0
26 -65 101 130 0
-16 47 114 130 0
-2 75 116 130 0
-14 57 -117 130 0
9 62 102 -131 0
11 48 -101 131 0
-14 75 -114 131 0
-17 -63 118 131 0
16 -80 -119 131 0
36 76 81 -132 0
2 78 -98 -132 0
-28 -42 108 -132 0
-30 -48 -109 -132 0
25 -41 -85 132 0
39 -59 88 132 0
-20 -68 94 132 0
12 72 107 132 0
-22 72 -115 132 0
-11 -41 100 -133 0
-19 69 106 -133 0
-31 -72 -119 133 0
33 57 -120 133 0
-22 -58 -86 -134 0
1 -72 95 -134 0
-15 75 -110 -134 0
8 -49 -111 -134 0
-28 78 -82 134 0
9 78 -92 134 0
-10 50 -99 134 0
38 46 -120 134 0
36 -64 94 -135 0
-35 -59 -96 -135 0
12 -44 -105 -135 0
25 63 -109 -135 0
-15 -60 -119 -135 0
39 -71 -120 -135 0
-31 -63 81 135 0
-17 45 -82 135 0
-37 53 89 135 0
-20 -46 -92 135 0
-34 65 101 135 0
-29 -72 -84 -136 0
36 -42 94 -136 0
-15 45 101 -136 0
-28 59 103 -136 0
-7 -43 110 -136 0
-22 47 88 136 0
37 77 -103 136 0
-16 76 -116 136 0
-17 42 116 136 0
-39 -55 119 136 0
-4 -52 -89 -137 0
38 80 85 137 0
19 -72 -94 137 0
19 49 -106 137 0
27 -56 -113 137 0
26 79 81 -138 0
-33 44 -106 -138 0
7 69 -109 -138 0
-18 -43 -117 -138 0
14 -41 89 138 0
-35 -73 -112 138 0
-22 -44 90 -139 0
13 -58 -106 -139 0
-15 -75 107 -139 0
8 -68 -119 -139 0
-13 -72 -87 139 0
13 52 99 139 0
-21 43 119 139 0
-9 -80 104 -140 0
3 -58 -108 -140 0
10 -46 -89 140 0
-39 -61 94 140 0
-11 46 -106 140 0
-35 60 -116 140 0
40 60 -119 140 0
14 -75 -114 -141 0
-4 70 84 141 0
4 67 87 141 0
-1 -57 -96 141 0
19 68 105 141 0
10 -50 -111 141 0
3 72 -120 141 0
4 -57 -93 -142 0
11 70 -109 -142 0
17 43 81 142 0
-40 -48 88 142 0
35 -61 88 142 0
-20 -53 -90 142 0
34 -60 -88 -143 0
-4 55 98 -143 0
-7 60 -113 -143 0
-18 50 113 -143 0
-1 -79 119 -143 0
22 42 -120 -143 0
-36 -45 -81 143 0
27 -64 -83 143 0
-1 70 -92 143 0
-21 -65 -95 143 0
20 -51 -99 143 0
-18 -41 -105 143 0
1 65 107 143 0
-6 46 -115 143 0
-40 71 117 143 0
-8 48 -90 -144 0
18 -42 -91 -144 0
-11 62 -95 -144 0
30 43 104 -144 0
9 66 -109 -144 0
39 69 113 -144 0
35 -77 94 144 0
-39 79 -98 144 0
5 -50 -111 144 0
-35 -77 81 -145 0
-38 -41 -86 -145 0
5 -46 -98 -145 0
16 68 104 -145 0
5 47 -106 -145 0
-22 72 90 145 0
31 -69 92 -146 0
3 45 99 -146 0
25 69 -100 -146 0
-21 -44 -82 146 0
15 -51 -83 146 0
-36 56 -97 146 0
33 77 -105 146 0
-38 57 111 146 0
38 -74 81 -147 0
27 -68 -84 -147 0
-39 57 110 -147 0
31 69 -120 -147 0
-27 70 -82 147 0
7 -62 -83 147 0
-19 68 -88 147 0
-18 66 93 147 0
27 44 96 147 0
19 76 -99 147 0
-37 42 115 147 0
-36 -68 85 -148 0
35 46 -101 -148 0
14 57 -119 -148 0
32 -70 -84 148 0
-14 -41 90 148 0
7 -45 -104 148 0
-28 -59 82 -149 0
4 71 -98 -149 0
4 53 101 -149 0
-24 67 -102 -149 0
-27 61 -112 -149 0
-10 44 -95 149 0
-10 53 -99 149 0
31 -61 104 149 0
-7 -41 108 149 0
35 80 109 149 0
21 -72 -115 149 0
-21 -60 93 -150 0
-11 56 105 -150 0
-17 62 105 -150 0
22 -56 111 -150 0
30 -62 113 150 0
10 67 119 150 0
40 56 -92 -151 0
-25 -57 -94 -151 0
3 75 -97 -151 0
32 -59 -107 -151 0
35 44 96 151 0
-39 68 102 151 0
21 65 -91 -152 0
-3 56 97 -152 0
-3 -66 -100 -152 0
32 60 -102 -152 0
-2 -44 -104 -152 0
-6 -67 -119 -152 0
28 73 -88 152 0
12 59 -97 152 0
39 62 -102 152 0
-39 -45 111 152 0
-16 -47 83 -153 0
-36 56 -85 -153 0
-1 -41 119 -153 0
-1 54 -92 153 0
-25 -74 98 153 0
-5 -45 -104 153 0
-1 -57 112 153 0
6 44 -114 153 0
7 -46 -117 153 0
7 -58 118 153 0
-37 43 -98 -154 0
6 -56 -99 -154 0
9 55 -118 -154 0
33 -63 83 154 0
-27 -77 86 154 0
16 -64 88 154 0
15 -58 92 -155 0
-16 46 -94 -155 0
13 -71 107 -155 0
29 60 108 -155 0
33 48 110 -155 0
-25 -71 -111 -155 0
10 -59 -119 -155 0
-7 -78 -91 155 0
-25 65 -113 155 0
40 -61 82 -156 0
15 41 84 -156 0
13 -41 -97 -156 0
15 47 -98 -156 0
24 -61 -119 -156 0
15 63 -83 156 0
-30 -52 84 156 0
-23 53 96 156 0
8 -56 -106 156 0
20 71 106 156 0
17 -55 107 156 0
10 -72 93 -157 0
19 -43 99 -157 0
35 48 88 157 0
-19 63 88 157 0
15 -78 -96 157 0
15 -44 100 157 0
-13 -52 -113 157 0
22 -54 118 157 0
40 76 -88 -158 0
-35 68 -100 -158 0
32 -63 120 -158 0
27 41 82 158 0
-23 61 -88 158 0
-5 80 -89 158 0
-28 -43 117 158 0
-12 -63 86 -159 0
39 57 -96 -159 0
9 -78 -106 -159 0
33 -50 108 -159 0
10 44 -114 -159 0
21 67 -83 159 0
31 -52 86 159 0
-37 55 96 159 0
-21 -45 104 159 0
3 -53 108 159 0
17 66 -109 159 0
31 -77 -82 -160 0
8 42 -100 -160 0
1 -50 -115 -160 0
-25 53 84 160 0
39 74 -94 160 0
-21 80 -96 160 0
-17 -42 -110 160 0
